\ENCODING=ISO-8859-1
\Problem name: ILOG.CPLEX

Minimize
 obj: gamma_2_5_0 + gamma_2_5_1 + gamma_2_4_0 + gamma_2_4_1 + gamma_2_3_0
      + gamma_2_3_1 + gamma_2_2_0 + gamma_2_2_1 + gamma_2_1_0 + gamma_2_1_1
      + gamma_2_0_0 + gamma_2_0_1 + gamma_4_5_0 + gamma_4_5_1 + gamma_4_5_2
      + gamma_4_4_0 + gamma_4_4_1 + gamma_4_4_2 + gamma_4_3_0 + gamma_4_3_1
      + gamma_4_3_2 + gamma_4_2_0 + gamma_4_2_1 + gamma_4_2_2 + gamma_4_1_0
      + gamma_4_1_1 + gamma_4_1_2 + gamma_4_0_0 + gamma_4_0_1 + gamma_4_0_2
      + gamma_1_1_0 + gamma_1_1_1 + gamma_1_0_0 + gamma_1_0_1 + gamma_0_1_0
      + gamma_0_1_1 + gamma_0_0_0 + gamma_3_5_0 + gamma_3_5_1 + gamma_3_5_2
      + gamma_3_4_0 + gamma_3_4_1 + gamma_3_3_0 + gamma_3_3_1 + gamma_3_3_2
      + gamma_3_2_0 + gamma_3_2_1 + gamma_3_1_0 + gamma_3_1_1 + gamma_3_0_0
      + gamma_3_0_1 + gamma_2_5_2 + gamma_2_4_2 + gamma_2_3_2 + gamma_2_2_2
      + gamma_2_1_2 + gamma_2_0_2 + gamma_0_0_1 + gamma_3_4_2 + gamma_3_2_2
      + gamma_3_1_2 + gamma_3_0_2
Subject To
 C1_0#0:         s_2_5 + s_2_4 + s_2_3 + s_2_2 + s_2_1 + s_2_0  = 1
 C1_1#1:         s_4_5 + s_4_4 + s_4_3 + s_4_2 + s_4_1 + s_4_0  = 1
 C1_2#2:         s_1_1 + s_1_0  = 1
 C1_3#3:         s_0_1 + s_0_0  = 1
 C1_4#4:         s_3_5 + s_3_4 + s_3_3 + s_3_2 + s_3_1 + s_3_0  = 1
 _2_0_0_0_1#5:   - 6.751 s_2_5 - 3 g_1 - 3 g_2 + 0.75 g_4 + 6.751 gamma_2_5_0
                 >= -6.75
 _2_0_0_0_2#6:   - 8.101 s_2_5 + g_0 - 4 g_1 - 1.5 g_2 - g_3 + 0.6 g_4
                 + 8.101 gamma_2_5_0 >= -8.1
 _2_0_0_0_3#7:   - 9.06766666666667 s_2_5 + 2 g_0 - 4 g_1
                 - 0.666666666666667 g_2 - 2 g_3 + 0.4 g_4
                 + 9.06766666666667 gamma_2_5_0 >= -9.06666666666667
 _2_0_0_0_4#8:   - 5.83433333333333 s_2_5 + 2 g_0 - g_1 + 0.333333333333333 g_2
                 - 2 g_3 - 0.5 g_4 + 5.83433333333333 gamma_2_5_0
                 >= -5.83333333333333
 _2_0_0_1_1#9:   - 4.651 s_2_5 - g_0 + g_1 - 1.5 g_2 + g_3 + 0.15 g_4
                 + 4.651 gamma_2_5_1 >= -4.65
 _2_0_0_1_2#10:  - 3.03433333333333 s_2_5 + g_0 + 0.833333333333333 g_2 - g_3
                 - 0.2 g_4 + 3.03433333333333 gamma_2_5_1 >= -3.03333333333333
 _2_0_0_1_3#11:  - 7.93433333333333 s_2_5 + g_0 + 3 g_1 + 1.83333333333333 g_2
                 - g_3 - 1.1 g_4 + 7.93433333333333 gamma_2_5_1
                 >= -7.93333333333333
 _2_0_1_0_1#12:  - 6.751 s_2_4 - 3 g_1 - 3 g_2 + 0.75 g_4 + 6.751 gamma_2_4_0
                 >= -6.75
 _2_0_1_0_2#13:  - 8.101 s_2_4 + g_0 - 4 g_1 - 1.5 g_2 - g_3 + 0.6 g_4
                 + 8.101 gamma_2_4_0 >= -8.1
 _2_0_1_0_3#14:  - 9.06766666666667 s_2_4 + 2 g_0 - 4 g_1
                 - 0.666666666666667 g_2 - 2 g_3 + 0.4 g_4
                 + 9.06766666666667 gamma_2_4_0 >= -9.06666666666667
 _2_0_1_0_4#15:  - 5.83433333333333 s_2_4 + 2 g_0 - g_1 + 0.333333333333333 g_2
                 - 2 g_3 - 0.5 g_4 + 5.83433333333333 gamma_2_4_0
                 >= -5.83333333333333
 _2_0_1_1_1#16:  - 4.651 s_2_4 + g_0 - g_1 + 1.5 g_2 - g_3 - 0.15 g_4
                 + 4.651 gamma_2_4_1 >= -4.65
 _2_0_1_1_2#17:  - 7.68433333333333 s_2_4 + 2 g_0 - g_1 + 2.33333333333333 g_2
                 - 2 g_3 - 0.35 g_4 + 7.68433333333333 gamma_2_4_1
                 >= -7.68333333333333
 _2_0_1_1_3#18:  - 10.5843333333333 s_2_4 + 2 g_0 + 2 g_1
                 + 3.33333333333333 g_2 - 2 g_3 - 1.25 g_4
                 + 10.5843333333333 gamma_2_4_1 >= -10.5833333333333
 _2_0_2_0_1#19:  - 4.651 s_2_3 - g_0 + g_1 - 1.5 g_2 + g_3 + 0.15 g_4
                 + 4.651 gamma_2_3_0 >= -4.65
 _2_0_2_0_2#20:  - 3.03433333333333 s_2_3 + g_0 + 0.833333333333333 g_2 - g_3
                 - 0.2 g_4 + 3.03433333333333 gamma_2_3_0 >= -3.03333333333333
 _2_0_2_0_3#21:  - 8.101 s_2_3 - g_0 + 4 g_1 + 1.5 g_2 + g_3 - 0.6 g_4
                 + 8.101 gamma_2_3_0 >= -8.1
 _2_0_2_0_4#22:  - 7.93433333333333 s_2_3 + g_0 + 3 g_1 + 1.83333333333333 g_2
                 - g_3 - 1.1 g_4 + 7.93433333333333 gamma_2_3_0
                 >= -7.93333333333333
 _2_0_2_1_1#23:  - 6.751 s_2_3 - 3 g_1 - 3 g_2 + 0.75 g_4 + 6.751 gamma_2_3_1
                 >= -6.75
 _2_0_3_0_1#24:  - 4.651 s_2_2 - g_0 + g_1 - 1.5 g_2 + g_3 + 0.15 g_4
                 + 4.651 gamma_2_2_0 >= -4.65
 _2_0_3_0_2#25:  - 3.03433333333333 s_2_2 + g_0 + 0.833333333333333 g_2 - g_3
                 - 0.2 g_4 + 3.03433333333333 gamma_2_2_0 >= -3.03333333333333
 _2_0_3_0_3#26:  - 8.101 s_2_2 - g_0 + 4 g_1 + 1.5 g_2 + g_3 - 0.6 g_4
                 + 8.101 gamma_2_2_0 >= -8.1
 _2_0_3_0_4#27:  - 7.93433333333333 s_2_2 + g_0 + 3 g_1 + 1.83333333333333 g_2
                 - g_3 - 1.1 g_4 + 7.93433333333333 gamma_2_2_0
                 >= -7.93333333333333
 _2_0_3_1_1#28:  - 6.751 s_2_2 + 3 g_1 + 3 g_2 - 0.75 g_4 + 6.751 gamma_2_2_1
                 >= -6.75
 _2_0_4_0_1#29:  - 4.651 s_2_1 + g_0 - g_1 + 1.5 g_2 - g_3 - 0.15 g_4
                 + 4.651 gamma_2_1_0 >= -4.65
 _2_0_4_0_2#30:  - 7.68433333333333 s_2_1 + 2 g_0 - g_1 + 2.33333333333333 g_2
                 - 2 g_3 - 0.35 g_4 + 7.68433333333333 gamma_2_1_0
                 >= -7.68333333333333
 _2_0_4_0_3#31:  - 6.751 s_2_1 + 3 g_1 + 3 g_2 - 0.75 g_4 + 6.751 gamma_2_1_0
                 >= -6.75
 _2_0_4_0_4#32:  - 10.5843333333333 s_2_1 + 2 g_0 + 2 g_1
                 + 3.33333333333333 g_2 - 2 g_3 - 1.25 g_4
                 + 10.5843333333333 gamma_2_1_0 >= -10.5833333333333
 _2_0_4_1_1#33:  - 8.101 s_2_1 + g_0 - 4 g_1 - 1.5 g_2 - g_3 + 0.6 g_4
                 + 8.101 gamma_2_1_1 >= -8.1
 _2_0_4_1_2#34:  - 9.06766666666667 s_2_1 + 2 g_0 - 4 g_1
                 - 0.666666666666667 g_2 - 2 g_3 + 0.4 g_4
                 + 9.06766666666667 gamma_2_1_1 >= -9.06666666666667
 _2_0_4_1_3#35:  - 5.83433333333333 s_2_1 + 2 g_0 - g_1 + 0.333333333333333 g_2
                 - 2 g_3 - 0.5 g_4 + 5.83433333333333 gamma_2_1_1
                 >= -5.83333333333333
 _2_0_5_0_1#36:  - 4.651 s_2_0 + g_0 - g_1 + 1.5 g_2 - g_3 - 0.15 g_4
                 + 4.651 gamma_2_0_0 >= -4.65
 _2_0_5_0_2#37:  - 7.68433333333333 s_2_0 + 2 g_0 - g_1 + 2.33333333333333 g_2
                 - 2 g_3 - 0.35 g_4 + 7.68433333333333 gamma_2_0_0
                 >= -7.68333333333333
 _2_0_5_0_3#38:  - 6.751 s_2_0 + 3 g_1 + 3 g_2 - 0.75 g_4 + 6.751 gamma_2_0_0
                 >= -6.75
 _2_0_5_0_4#39:  - 10.5843333333333 s_2_0 + 2 g_0 + 2 g_1
                 + 3.33333333333333 g_2 - 2 g_3 - 1.25 g_4
                 + 10.5843333333333 gamma_2_0_0 >= -10.5833333333333
 _2_0_5_1_1#40:  - 3.03433333333333 s_2_0 + g_0 + 0.833333333333333 g_2 - g_3
                 - 0.2 g_4 + 3.03433333333333 gamma_2_0_1 >= -3.03333333333333
 _2_0_5_1_2#41:  - 8.101 s_2_0 - g_0 + 4 g_1 + 1.5 g_2 + g_3 - 0.6 g_4
                 + 8.101 gamma_2_0_1 >= -8.1
 _2_0_5_1_3#42:  - 7.93433333333333 s_2_0 + g_0 + 3 g_1 + 1.83333333333333 g_2
                 - g_3 - 1.1 g_4 + 7.93433333333333 gamma_2_0_1
                 >= -7.93333333333333
 _2_1_0_0_1#43:  - 6.751 s_4_5 - 3 g_1 - 3 g_2 + 0.75 g_4 + 6.751 gamma_4_5_0
                 >= -6.75
 _2_1_0_0_2#44:  - 10.501 s_4_5 + 2 g_0 - 5 g_1 - g_2 - 2 g_3 + 0.5 g_4
                 + 10.501 gamma_4_5_0 >= -10.5
 _2_1_0_0_3#45:  - 10.501 s_4_5 + 2 g_0 - 5 g_1 - g_2 - 2 g_3 + 0.5 g_4
                 + 10.501 gamma_4_5_0 >= -10.5
 _2_1_0_0_4#46:  - 7.58433333333333 s_4_5 + 2 g_0 - 3 g_1
                 - 0.333333333333333 g_2 - 2 g_3 + 0.25 g_4
                 + 7.58433333333333 gamma_4_5_0 >= -7.58333333333333
 _2_1_0_0_5#47:  - 0.001 s_4_5 + 0.001 gamma_4_5_0 >= 0
 _2_1_0_0_6#48:  - 3.501 s_4_5 + g_0 + 0.5 g_2 - g_3 - g_4 + 3.501 gamma_4_5_0
                 >= -3.5
 _2_1_0_1_1#49:  - 8.251 s_4_5 - 2 g_0 + 2 g_1 - 2 g_2 + 2 g_3 + 0.25 g_4
                 + 8.251 gamma_4_5_1 >= -8.25
 _2_1_0_1_2#50:  - 0.001 s_4_5 + 0.001 gamma_4_5_1 >= 0
 _2_1_0_1_3#51:  - 2.91766666666667 s_4_5 + 2 g_1 + 0.666666666666667 g_2
                 - 0.25 g_4 + 2.91766666666667 gamma_4_5_1 >= -2.91666666666667
 _2_1_0_1_4#52:  - 10.501 s_4_5 - 2 g_0 + 5 g_1 + g_2 + 2 g_3 - 0.5 g_4
                 + 10.501 gamma_4_5_1 >= -10.5
 _2_1_0_1_5#53:  - 10.001 s_4_5 - g_0 + 5 g_1 + 1.5 g_2 + g_3 - 1.5 g_4
                 + 10.001 gamma_4_5_1 >= -10
 _2_1_0_2_1#54:  - 6.751 s_4_5 + 3 g_1 + 3 g_2 - 0.75 g_4 + 6.751 gamma_4_5_2
                 >= -6.75
 _2_1_1_0_1#55:  - 6.751 s_4_4 - 3 g_1 - 3 g_2 + 0.75 g_4 + 6.751 gamma_4_4_0
                 >= -6.75
 _2_1_1_0_2#56:  - 10.501 s_4_4 + 2 g_0 - 5 g_1 - g_2 - 2 g_3 + 0.5 g_4
                 + 10.501 gamma_4_4_0 >= -10.5
 _2_1_1_0_3#57:  - 10.501 s_4_4 + 2 g_0 - 5 g_1 - g_2 - 2 g_3 + 0.5 g_4
                 + 10.501 gamma_4_4_0 >= -10.5
 _2_1_1_0_4#58:  - 7.58433333333333 s_4_4 + 2 g_0 - 3 g_1
                 - 0.333333333333333 g_2 - 2 g_3 + 0.25 g_4
                 + 7.58433333333333 gamma_4_4_0 >= -7.58333333333333
 _2_1_1_0_5#59:  - 0.001 s_4_4 + 0.001 gamma_4_4_0 >= 0
 _2_1_1_0_6#60:  - 3.501 s_4_4 + g_0 + 0.5 g_2 - g_3 - g_4 + 3.501 gamma_4_4_0
                 >= -3.5
 _2_1_1_1_1#61:  - 8.251 s_4_4 + 2 g_0 - 2 g_1 + 2 g_2 - 2 g_3 - 0.25 g_4
                 + 8.251 gamma_4_4_1 >= -8.25
 _2_1_1_1_2#62:  - 8.251 s_4_4 + 2 g_0 - 2 g_1 + 2 g_2 - 2 g_3 - 0.25 g_4
                 + 8.251 gamma_4_4_1 >= -8.25
 _2_1_1_1_3#63:  - 7.16766666666667 s_4_4 + 2 g_0 + 2.66666666666667 g_2
                 - 2 g_3 - 0.5 g_4 + 7.16766666666667 gamma_4_4_1
                 >= -7.16666666666667
 _2_1_1_1_4#64:  - 6.751 s_4_4 + 3 g_1 + 3 g_2 - 0.75 g_4 + 6.751 gamma_4_4_1
                 >= -6.75
 _2_1_1_1_5#65:  - 10.251 s_4_4 + g_0 + 3 g_1 + 3.5 g_2 - g_3 - 1.75 g_4
                 + 10.251 gamma_4_4_1 >= -10.25
 _2_1_1_2_1#66:  - 0.001 s_4_4 + 0.001 gamma_4_4_2 >= 0
 _2_1_1_2_2#67:  - 2.91766666666667 s_4_4 + 2 g_1 + 0.666666666666667 g_2
                 - 0.25 g_4 + 2.91766666666667 gamma_4_4_2 >= -2.91666666666667
 _2_1_1_2_3#68:  - 10.501 s_4_4 - 2 g_0 + 5 g_1 + g_2 + 2 g_3 - 0.5 g_4
                 + 10.501 gamma_4_4_2 >= -10.5
 _2_1_1_2_4#69:  - 10.001 s_4_4 - g_0 + 5 g_1 + 1.5 g_2 + g_3 - 1.5 g_4
                 + 10.001 gamma_4_4_2 >= -10
 _2_1_2_0_1#70:  - 8.251 s_4_3 - 2 g_0 + 2 g_1 - 2 g_2 + 2 g_3 + 0.25 g_4
                 + 8.251 gamma_4_3_0 >= -8.25
 _2_1_2_0_2#71:  - 0.001 s_4_3 + 0.001 gamma_4_3_0 >= 0
 _2_1_2_0_3#72:  - 2.91766666666667 s_4_3 + 2 g_1 + 0.666666666666667 g_2
                 - 0.25 g_4 + 2.91766666666667 gamma_4_3_0 >= -2.91666666666667
 _2_1_2_0_4#73:  - 10.501 s_4_3 - 2 g_0 + 5 g_1 + g_2 + 2 g_3 - 0.5 g_4
                 + 10.501 gamma_4_3_0 >= -10.5
 _2_1_2_0_5#74:  - 10.501 s_4_3 - 2 g_0 + 5 g_1 + g_2 + 2 g_3 - 0.5 g_4
                 + 10.501 gamma_4_3_0 >= -10.5
 _2_1_2_0_6#75:  - 10.001 s_4_3 - g_0 + 5 g_1 + 1.5 g_2 + g_3 - 1.5 g_4
                 + 10.001 gamma_4_3_0 >= -10
 _2_1_2_1_1#76:  - 6.751 s_4_3 - 3 g_1 - 3 g_2 + 0.75 g_4 + 6.751 gamma_4_3_1
                 >= -6.75
 _2_1_2_1_2#77:  - 0.001 s_4_3 + 0.001 gamma_4_3_1 >= 0
 _2_1_2_1_3#78:  - 3.501 s_4_3 + g_0 + 0.5 g_2 - g_3 - g_4 + 3.501 gamma_4_3_1
                 >= -3.5
 _2_1_2_2_1#79:  - 6.751 s_4_3 + 3 g_1 + 3 g_2 - 0.75 g_4 + 6.751 gamma_4_3_2
                 >= -6.75
 _2_1_3_0_1#80:  - 8.251 s_4_2 - 2 g_0 + 2 g_1 - 2 g_2 + 2 g_3 + 0.25 g_4
                 + 8.251 gamma_4_2_0 >= -8.25
 _2_1_3_0_2#81:  - 0.001 s_4_2 + 0.001 gamma_4_2_0 >= 0
 _2_1_3_0_3#82:  - 2.91766666666667 s_4_2 + 2 g_1 + 0.666666666666667 g_2
                 - 0.25 g_4 + 2.91766666666667 gamma_4_2_0 >= -2.91666666666667
 _2_1_3_0_4#83:  - 10.501 s_4_2 - 2 g_0 + 5 g_1 + g_2 + 2 g_3 - 0.5 g_4
                 + 10.501 gamma_4_2_0 >= -10.5
 _2_1_3_0_5#84:  - 10.501 s_4_2 - 2 g_0 + 5 g_1 + g_2 + 2 g_3 - 0.5 g_4
                 + 10.501 gamma_4_2_0 >= -10.5
 _2_1_3_0_6#85:  - 10.001 s_4_2 - g_0 + 5 g_1 + 1.5 g_2 + g_3 - 1.5 g_4
                 + 10.001 gamma_4_2_0 >= -10
 _2_1_3_1_1#86:  - 6.751 s_4_2 + 3 g_1 + 3 g_2 - 0.75 g_4 + 6.751 gamma_4_2_1
                 >= -6.75
 _2_1_3_1_2#87:  - 6.751 s_4_2 + 3 g_1 + 3 g_2 - 0.75 g_4 + 6.751 gamma_4_2_1
                 >= -6.75
 _2_1_3_1_3#88:  - 10.251 s_4_2 + g_0 + 3 g_1 + 3.5 g_2 - g_3 - 1.75 g_4
                 + 10.251 gamma_4_2_1 >= -10.25
 _2_1_3_2_1#89:  - 0.001 s_4_2 + 0.001 gamma_4_2_2 >= 0
 _2_1_4_0_1#90:  - 8.251 s_4_1 + 2 g_0 - 2 g_1 + 2 g_2 - 2 g_3 - 0.25 g_4
                 + 8.251 gamma_4_1_0 >= -8.25
 _2_1_4_0_2#91:  - 8.251 s_4_1 + 2 g_0 - 2 g_1 + 2 g_2 - 2 g_3 - 0.25 g_4
                 + 8.251 gamma_4_1_0 >= -8.25
 _2_1_4_0_3#92:  - 7.16766666666667 s_4_1 + 2 g_0 + 2.66666666666667 g_2
                 - 2 g_3 - 0.5 g_4 + 7.16766666666667 gamma_4_1_0
                 >= -7.16666666666667
 _2_1_4_0_4#93:  - 6.751 s_4_1 + 3 g_1 + 3 g_2 - 0.75 g_4 + 6.751 gamma_4_1_0
                 >= -6.75
 _2_1_4_0_5#94:  - 6.751 s_4_1 + 3 g_1 + 3 g_2 - 0.75 g_4 + 6.751 gamma_4_1_0
                 >= -6.75
 _2_1_4_0_6#95:  - 10.251 s_4_1 + g_0 + 3 g_1 + 3.5 g_2 - g_3 - 1.75 g_4
                 + 10.251 gamma_4_1_0 >= -10.25
 _2_1_4_1_1#96:  - 10.501 s_4_1 + 2 g_0 - 5 g_1 - g_2 - 2 g_3 + 0.5 g_4
                 + 10.501 gamma_4_1_1 >= -10.5
 _2_1_4_1_2#97:  - 10.501 s_4_1 + 2 g_0 - 5 g_1 - g_2 - 2 g_3 + 0.5 g_4
                 + 10.501 gamma_4_1_1 >= -10.5
 _2_1_4_1_3#98:  - 7.58433333333333 s_4_1 + 2 g_0 - 3 g_1
                 - 0.333333333333333 g_2 - 2 g_3 + 0.25 g_4
                 + 7.58433333333333 gamma_4_1_1 >= -7.58333333333333
 _2_1_4_1_4#99:  - 0.001 s_4_1 + 0.001 gamma_4_1_1 >= 0
 _2_1_4_1_5#100: - 3.501 s_4_1 + g_0 + 0.5 g_2 - g_3 - g_4 + 3.501 gamma_4_1_1
                 >= -3.5
 _2_1_4_2_1#101: - 0.001 s_4_1 + 0.001 gamma_4_1_2 >= 0
 _2_1_4_2_2#102: - 2.91766666666667 s_4_1 + 2 g_1 + 0.666666666666667 g_2
                 - 0.25 g_4 + 2.91766666666667 gamma_4_1_2 >= -2.91666666666667
 _2_1_4_2_3#103: - 10.501 s_4_1 - 2 g_0 + 5 g_1 + g_2 + 2 g_3 - 0.5 g_4
                 + 10.501 gamma_4_1_2 >= -10.5
 _2_1_4_2_4#104: - 10.001 s_4_1 - g_0 + 5 g_1 + 1.5 g_2 + g_3 - 1.5 g_4
                 + 10.001 gamma_4_1_2 >= -10
 _2_1_5_0_1#105: - 8.251 s_4_0 + 2 g_0 - 2 g_1 + 2 g_2 - 2 g_3 - 0.25 g_4
                 + 8.251 gamma_4_0_0 >= -8.25
 _2_1_5_0_2#106: - 8.251 s_4_0 + 2 g_0 - 2 g_1 + 2 g_2 - 2 g_3 - 0.25 g_4
                 + 8.251 gamma_4_0_0 >= -8.25
 _2_1_5_0_3#107: - 7.16766666666667 s_4_0 + 2 g_0 + 2.66666666666667 g_2
                 - 2 g_3 - 0.5 g_4 + 7.16766666666667 gamma_4_0_0
                 >= -7.16666666666667
 _2_1_5_0_4#108: - 6.751 s_4_0 + 3 g_1 + 3 g_2 - 0.75 g_4 + 6.751 gamma_4_0_0
                 >= -6.75
 _2_1_5_0_5#109: - 6.751 s_4_0 + 3 g_1 + 3 g_2 - 0.75 g_4 + 6.751 gamma_4_0_0
                 >= -6.75
 _2_1_5_0_6#110: - 10.251 s_4_0 + g_0 + 3 g_1 + 3.5 g_2 - g_3 - 1.75 g_4
                 + 10.251 gamma_4_0_0 >= -10.25
 _2_1_5_1_1#111: - 0.001 s_4_0 + 0.001 gamma_4_0_1 >= 0
 _2_1_5_1_2#112: - 2.91766666666667 s_4_0 + 2 g_1 + 0.666666666666667 g_2
                 - 0.25 g_4 + 2.91766666666667 gamma_4_0_1 >= -2.91666666666667
 _2_1_5_1_3#113: - 10.501 s_4_0 - 2 g_0 + 5 g_1 + g_2 + 2 g_3 - 0.5 g_4
                 + 10.501 gamma_4_0_1 >= -10.5
 _2_1_5_1_4#114: - 10.501 s_4_0 - 2 g_0 + 5 g_1 + g_2 + 2 g_3 - 0.5 g_4
                 + 10.501 gamma_4_0_1 >= -10.5
 _2_1_5_1_5#115: - 10.001 s_4_0 - g_0 + 5 g_1 + 1.5 g_2 + g_3 - 1.5 g_4
                 + 10.001 gamma_4_0_1 >= -10
 _2_1_5_2_1#116: - 0.001 s_4_0 + 0.001 gamma_4_0_2 >= 0
 _2_2_0_0_1#117: - 501.501 s_1_1 + 100 g_0 - 300 g_1 - g_2 - 100 g_3 + 0.5 g_4
                 + 501.501 gamma_1_1_0 >= -501.5
 _2_2_0_0_2#118: - 1500.976 s_1_1 + 400 g_0 - 700 g_1 - 0.6 g_2 - 400 g_3
                 + 0.375 g_4 + 1500.976 gamma_1_1_0 >= -1500.975
 _2_2_0_0_3#119: - 0.001 s_1_1 + 0.001 gamma_1_1_0 >= 0
 _2_2_0_0_4#120: - 1200.001 s_1_1 + 400 g_0 - 400 g_1 - 400 g_3
                 + 1200.001 gamma_1_1_0 >= -1200
 _2_2_0_0_5#121: - 1100.451 s_1_1 + 400 g_0 - 300 g_1 + 0.2 g_2 - 400 g_3
                 - 0.25 g_4 + 1100.451 gamma_1_1_0 >= -1100.45
 _2_2_0_0_6#122: - 902.101 s_1_1 + 400 g_0 - 100 g_1 + 0.6 g_2 - 400 g_3
                 - 1.5 g_4 + 902.101 gamma_1_1_0 >= -902.1
 _2_2_0_1_1#123: - 1000.526 s_1_1 - 300 g_0 + 400 g_1 - 0.4 g_2 + 300 g_3
                 + 0.125 g_4 + 1000.526 gamma_1_1_1 >= -1000.525
 _2_2_0_1_2#124: - 1500.976 s_1_1 - 400 g_0 + 700 g_1 + 0.6 g_2 + 400 g_3
                 - 0.375 g_4 + 1500.976 gamma_1_1_1 >= -1500.975
 _2_2_0_1_3#125: - 300.976 s_1_1 + 300 g_1 + 0.6 g_2 - 0.375 g_4
                 + 300.976 gamma_1_1_1 >= -300.975
 _2_2_0_1_4#126: - 401.426 s_1_1 + 400 g_1 + 0.8 g_2 - 0.625 g_4
                 + 401.426 gamma_1_1_1 >= -401.425
 _2_2_0_1_5#127: - 603.076 s_1_1 + 600 g_1 + 1.2 g_2 - 1.875 g_4
                 + 603.076 gamma_1_1_1 >= -603.075
 _2_2_1_0_1#128: - 1000.526 s_1_0 - 300 g_0 + 400 g_1 - 0.4 g_2 + 300 g_3
                 + 0.125 g_4 + 1000.526 gamma_1_0_0 >= -1000.525
 _2_2_1_0_2#129: - 1500.976 s_1_0 - 400 g_0 + 700 g_1 + 0.6 g_2 + 400 g_3
                 - 0.375 g_4 + 1500.976 gamma_1_0_0 >= -1500.975
 _2_2_1_0_3#130: - 1500.976 s_1_0 - 400 g_0 + 700 g_1 + 0.6 g_2 + 400 g_3
                 - 0.375 g_4 + 1500.976 gamma_1_0_0 >= -1500.975
 _2_2_1_0_4#131: - 300.976 s_1_0 + 300 g_1 + 0.6 g_2 - 0.375 g_4
                 + 300.976 gamma_1_0_0 >= -300.975
 _2_2_1_0_5#132: - 401.426 s_1_0 + 400 g_1 + 0.8 g_2 - 0.625 g_4
                 + 401.426 gamma_1_0_0 >= -401.425
 _2_2_1_0_6#133: - 603.076 s_1_0 + 600 g_1 + 1.2 g_2 - 1.875 g_4
                 + 603.076 gamma_1_0_0 >= -603.075
 _2_2_1_1_1#134: - 0.001 s_1_0 + 0.001 gamma_1_0_1 >= 0
 _2_3_0_0_1#135: - 4.58433333333333 s_0_1 + g_0 - 2 g_1 - 0.333333333333333 g_2
                 - g_3 + 0.25 g_4 + 4.58433333333333 gamma_0_1_0
                 >= -4.58333333333333
 _2_3_0_0_2#136: - 9.001 s_0_1 + 3 g_0 - 3 g_1 - 3 g_3 + 9.001 gamma_0_1_0
                 >= -9
 _2_3_0_0_3#137: - 2.83433333333333 s_0_1 + g_0 + 0.333333333333333 g_2 - g_3
                 - 0.5 g_4 + 2.83433333333333 gamma_0_1_0 >= -2.83333333333333
 _2_3_0_1_1#138: - 3.41766666666667 s_0_1 + 2 g_1 + 0.666666666666667 g_2
                 - 0.75 g_4 + 3.41766666666667 gamma_0_1_1 >= -3.41666666666667
 _2_3_1_0_1#139: - 4.58433333333333 s_0_0 - g_0 + 2 g_1 + 0.333333333333333 g_2
                 + g_3 - 0.25 g_4 + 4.58433333333333 gamma_0_0_0
                 >= -4.58333333333333
 _2_3_1_0_2#140: - 5.58433333333333 s_0_0 + 2 g_0 - g_1 + 0.333333333333333 g_2
                 - 2 g_3 - 0.25 g_4 + 5.58433333333333 gamma_0_0_0
                 >= -5.58333333333333
 _2_3_1_0_3#141: - 3.41766666666667 s_0_0 + 2 g_1 + 0.666666666666667 g_2
                 - 0.75 g_4 + 3.41766666666667 gamma_0_0_0 >= -3.41666666666667
 _2_4_0_0_1#142: - 5.501 s_3_5 + 2 g_0 + 0.5 g_2 - 2 g_3 - g_4
                 + 5.501 gamma_3_5_0 >= -5.5
 _2_4_0_0_2#143: - 12.976 s_3_5 + 3 g_0 - 6 g_1 - 0.6 g_2 - 3 g_3 + 0.375 g_4
                 + 12.976 gamma_3_5_0 >= -12.975
 _2_4_0_0_3#144: - 5.58433333333333 s_3_5 + 2 g_0 - g_1 + 0.25 g_2 - 2 g_3
                 - 0.333333333333333 g_4 + 5.58433333333333 gamma_3_5_0
                 >= -5.58333333333333
 _2_4_0_0_4#145: - 8.751 s_3_5 + 2 g_0 + g_1 + 0.75 g_2 - 2 g_3 - 3 g_4
                 + 8.751 gamma_3_5_0 >= -8.75
 _2_4_0_0_5#146: - 7.501 s_3_5 + g_0 - 4 g_1 - g_2 - g_3 + 0.5 g_4
                 + 7.501 gamma_3_5_0 >= -7.5
 _2_4_0_0_6#147: - 5.58433333333333 s_3_5 + 2 g_0 - g_1 + 0.25 g_2 - 2 g_3
                 - 0.333333333333333 g_4 + 5.58433333333333 gamma_3_5_0
                 >= -5.58333333333333
 _2_4_0_1_1#148: - 9.001 s_3_5 + g_0 + 4 g_1 + 1.5 g_2 - g_3 - 1.5 g_4
                 + 9.001 gamma_3_5_1 >= -9
 _2_4_0_1_2#149: - 6.526 s_3_5 + 2 g_0 - 2 g_1 + 0.4 g_2 - 2 g_3 - 0.125 g_4
                 + 6.526 gamma_3_5_1 >= -6.525
 _2_4_0_1_3#150: - 7.08433333333333 s_3_5 + g_0 + 3 g_1 + 1.25 g_2 - g_3
                 - 0.833333333333333 g_4 + 7.08433333333333 gamma_3_5_1
                 >= -7.08333333333333
 _2_4_0_1_4#151: - 12.251 s_3_5 + g_0 + 5 g_1 + 1.75 g_2 - g_3 - 3.5 g_4
                 + 12.251 gamma_3_5_1 >= -12.25
 _2_4_0_1_5#152: - 7.08433333333333 s_3_5 + g_0 + 3 g_1 + 1.25 g_2 - g_3
                 - 0.833333333333333 g_4 + 7.08433333333333 gamma_3_5_1
                 >= -7.08333333333333
 _2_4_0_2_1#153: - 10.476 s_3_5 - g_0 + 6 g_1 + 1.1 g_2 + g_3 - 1.375 g_4
                 + 10.476 gamma_3_5_2 >= -10.475
 _2_4_0_2_2#154: - 8.55933333333333 s_3_5 - g_0 + 5 g_1 + 0.85 g_2 + g_3
                 - 0.708333333333333 g_4 + 8.55933333333333 gamma_3_5_2
                 >= -8.55833333333333
 _2_4_0_2_3#155: - 13.726 s_3_5 - g_0 + 7 g_1 + 1.35 g_2 + g_3 - 3.375 g_4
                 + 13.726 gamma_3_5_2 >= -13.725
 _2_4_0_2_4#156: - 8.55933333333333 s_3_5 - g_0 + 5 g_1 + 0.85 g_2 + g_3
                 - 0.708333333333333 g_4 + 8.55933333333333 gamma_3_5_2
                 >= -8.55833333333333
 _2_4_1_0_1#157: - 5.501 s_3_4 + 2 g_0 + 0.5 g_2 - 2 g_3 - g_4
                 + 5.501 gamma_3_4_0 >= -5.5
 _2_4_1_0_2#158: - 12.976 s_3_4 + 3 g_0 - 6 g_1 - 0.6 g_2 - 3 g_3 + 0.375 g_4
                 + 12.976 gamma_3_4_0 >= -12.975
 _2_4_1_0_3#159: - 5.58433333333333 s_3_4 + 2 g_0 - g_1 + 0.25 g_2 - 2 g_3
                 - 0.333333333333333 g_4 + 5.58433333333333 gamma_3_4_0
                 >= -5.58333333333333
 _2_4_1_0_4#160: - 8.751 s_3_4 + 2 g_0 + g_1 + 0.75 g_2 - 2 g_3 - 3 g_4
                 + 8.751 gamma_3_4_0 >= -8.75
 _2_4_1_0_5#161: - 7.501 s_3_4 + g_0 - 4 g_1 - g_2 - g_3 + 0.5 g_4
                 + 7.501 gamma_3_4_0 >= -7.5
 _2_4_1_0_6#162: - 5.58433333333333 s_3_4 + 2 g_0 - g_1 + 0.25 g_2 - 2 g_3
                 - 0.333333333333333 g_4 + 5.58433333333333 gamma_3_4_0
                 >= -5.58333333333333
 _2_4_1_1_1#163: - 10.476 s_3_4 - g_0 + 6 g_1 + 1.1 g_2 + g_3 - 1.375 g_4
                 + 10.476 gamma_3_4_1 >= -10.475
 _2_4_1_1_2#164: - 8.55933333333333 s_3_4 - g_0 + 5 g_1 + 0.85 g_2 + g_3
                 - 0.708333333333333 g_4 + 8.55933333333333 gamma_3_4_1
                 >= -8.55833333333333
 _2_4_1_1_3#165: - 13.726 s_3_4 - g_0 + 7 g_1 + 1.35 g_2 + g_3 - 3.375 g_4
                 + 13.726 gamma_3_4_1 >= -13.725
 _2_4_1_1_4#166: - 6.526 s_3_4 - 2 g_0 + 2 g_1 - 0.4 g_2 + 2 g_3 + 0.125 g_4
                 + 6.526 gamma_3_4_1 >= -6.525
 _2_4_1_1_5#167: - 8.55933333333333 s_3_4 - g_0 + 5 g_1 + 0.85 g_2 + g_3
                 - 0.708333333333333 g_4 + 8.55933333333333 gamma_3_4_1
                 >= -8.55833333333333
 _2_4_2_0_1#168: - 9.001 s_3_3 + g_0 + 4 g_1 + 1.5 g_2 - g_3 - 1.5 g_4
                 + 9.001 gamma_3_3_0 >= -9
 _2_4_2_0_2#169: - 6.526 s_3_3 + 2 g_0 - 2 g_1 + 0.4 g_2 - 2 g_3 - 0.125 g_4
                 + 6.526 gamma_3_3_0 >= -6.525
 _2_4_2_0_3#170: - 7.08433333333333 s_3_3 + g_0 + 3 g_1 + 1.25 g_2 - g_3
                 - 0.833333333333333 g_4 + 7.08433333333333 gamma_3_3_0
                 >= -7.08333333333333
 _2_4_2_0_4#171: - 12.251 s_3_3 + g_0 + 5 g_1 + 1.75 g_2 - g_3 - 3.5 g_4
                 + 12.251 gamma_3_3_0 >= -12.25
 _2_4_2_0_5#172: - 7.501 s_3_3 - g_0 + 4 g_1 + g_2 + g_3 - 0.5 g_4
                 + 7.501 gamma_3_3_0 >= -7.5
 _2_4_2_0_6#173: - 7.08433333333333 s_3_3 + g_0 + 3 g_1 + 1.25 g_2 - g_3
                 - 0.833333333333333 g_4 + 7.08433333333333 gamma_3_3_0
                 >= -7.08333333333333
 _2_4_2_1_1#174: - 5.501 s_3_3 + 2 g_0 + 0.5 g_2 - 2 g_3 - g_4
                 + 5.501 gamma_3_3_1 >= -5.5
 _2_4_2_1_2#175: - 12.976 s_3_3 + 3 g_0 - 6 g_1 - 0.6 g_2 - 3 g_3 + 0.375 g_4
                 + 12.976 gamma_3_3_1 >= -12.975
 _2_4_2_1_3#176: - 5.58433333333333 s_3_3 + 2 g_0 - g_1 + 0.25 g_2 - 2 g_3
                 - 0.333333333333333 g_4 + 5.58433333333333 gamma_3_3_1
                 >= -5.58333333333333
 _2_4_2_1_4#177: - 8.751 s_3_3 + 2 g_0 + g_1 + 0.75 g_2 - 2 g_3 - 3 g_4
                 + 8.751 gamma_3_3_1 >= -8.75
 _2_4_2_1_5#178: - 5.58433333333333 s_3_3 + 2 g_0 - g_1 + 0.25 g_2 - 2 g_3
                 - 0.333333333333333 g_4 + 5.58433333333333 gamma_3_3_1
                 >= -5.58333333333333
 _2_4_2_2_1#179: - 10.476 s_3_3 - g_0 + 6 g_1 + 1.1 g_2 + g_3 - 1.375 g_4
                 + 10.476 gamma_3_3_2 >= -10.475
 _2_4_2_2_2#180: - 8.55933333333333 s_3_3 - g_0 + 5 g_1 + 0.85 g_2 + g_3
                 - 0.708333333333333 g_4 + 8.55933333333333 gamma_3_3_2
                 >= -8.55833333333333
 _2_4_2_2_3#181: - 13.726 s_3_3 - g_0 + 7 g_1 + 1.35 g_2 + g_3 - 3.375 g_4
                 + 13.726 gamma_3_3_2 >= -13.725
 _2_4_2_2_4#182: - 8.55933333333333 s_3_3 - g_0 + 5 g_1 + 0.85 g_2 + g_3
                 - 0.708333333333333 g_4 + 8.55933333333333 gamma_3_3_2
                 >= -8.55833333333333
 _2_4_3_0_1#183: - 9.001 s_3_2 + g_0 + 4 g_1 + 1.5 g_2 - g_3 - 1.5 g_4
                 + 9.001 gamma_3_2_0 >= -9
 _2_4_3_0_2#184: - 6.526 s_3_2 + 2 g_0 - 2 g_1 + 0.4 g_2 - 2 g_3 - 0.125 g_4
                 + 6.526 gamma_3_2_0 >= -6.525
 _2_4_3_0_3#185: - 7.08433333333333 s_3_2 + g_0 + 3 g_1 + 1.25 g_2 - g_3
                 - 0.833333333333333 g_4 + 7.08433333333333 gamma_3_2_0
                 >= -7.08333333333333
 _2_4_3_0_4#186: - 12.251 s_3_2 + g_0 + 5 g_1 + 1.75 g_2 - g_3 - 3.5 g_4
                 + 12.251 gamma_3_2_0 >= -12.25
 _2_4_3_0_5#187: - 7.501 s_3_2 - g_0 + 4 g_1 + g_2 + g_3 - 0.5 g_4
                 + 7.501 gamma_3_2_0 >= -7.5
 _2_4_3_0_6#188: - 7.08433333333333 s_3_2 + g_0 + 3 g_1 + 1.25 g_2 - g_3
                 - 0.833333333333333 g_4 + 7.08433333333333 gamma_3_2_0
                 >= -7.08333333333333
 _2_4_3_1_1#189: - 10.476 s_3_2 - g_0 + 6 g_1 + 1.1 g_2 + g_3 - 1.375 g_4
                 + 10.476 gamma_3_2_1 >= -10.475
 _2_4_3_1_2#190: - 8.55933333333333 s_3_2 - g_0 + 5 g_1 + 0.85 g_2 + g_3
                 - 0.708333333333333 g_4 + 8.55933333333333 gamma_3_2_1
                 >= -8.55833333333333
 _2_4_3_1_3#191: - 13.726 s_3_2 - g_0 + 7 g_1 + 1.35 g_2 + g_3 - 3.375 g_4
                 + 13.726 gamma_3_2_1 >= -13.725
 _2_4_3_1_4#192: - 12.976 s_3_2 - 3 g_0 + 6 g_1 + 0.6 g_2 + 3 g_3 - 0.375 g_4
                 + 12.976 gamma_3_2_1 >= -12.975
 _2_4_3_1_5#193: - 8.55933333333333 s_3_2 - g_0 + 5 g_1 + 0.85 g_2 + g_3
                 - 0.708333333333333 g_4 + 8.55933333333333 gamma_3_2_1
                 >= -8.55833333333333
 _2_4_4_0_1#194: - 10.476 s_3_1 - g_0 + 6 g_1 + 1.1 g_2 + g_3 - 1.375 g_4
                 + 10.476 gamma_3_1_0 >= -10.475
 _2_4_4_0_2#195: - 8.55933333333333 s_3_1 - g_0 + 5 g_1 + 0.85 g_2 + g_3
                 - 0.708333333333333 g_4 + 8.55933333333333 gamma_3_1_0
                 >= -8.55833333333333
 _2_4_4_0_3#196: - 13.726 s_3_1 - g_0 + 7 g_1 + 1.35 g_2 + g_3 - 3.375 g_4
                 + 13.726 gamma_3_1_0 >= -13.725
 _2_4_4_0_4#197: - 6.526 s_3_1 - 2 g_0 + 2 g_1 - 0.4 g_2 + 2 g_3 + 0.125 g_4
                 + 6.526 gamma_3_1_0 >= -6.525
 _2_4_4_0_5#198: - 12.976 s_3_1 - 3 g_0 + 6 g_1 + 0.6 g_2 + 3 g_3 - 0.375 g_4
                 + 12.976 gamma_3_1_0 >= -12.975
 _2_4_4_0_6#199: - 8.55933333333333 s_3_1 - g_0 + 5 g_1 + 0.85 g_2 + g_3
                 - 0.708333333333333 g_4 + 8.55933333333333 gamma_3_1_0
                 >= -8.55833333333333
 _2_4_4_1_1#200: - 5.501 s_3_1 + 2 g_0 + 0.5 g_2 - 2 g_3 - g_4
                 + 5.501 gamma_3_1_1 >= -5.5
 _2_4_4_1_2#201: - 5.58433333333333 s_3_1 + 2 g_0 - g_1 + 0.25 g_2 - 2 g_3
                 - 0.333333333333333 g_4 + 5.58433333333333 gamma_3_1_1
                 >= -5.58333333333333
 _2_4_4_1_3#202: - 8.751 s_3_1 + 2 g_0 + g_1 + 0.75 g_2 - 2 g_3 - 3 g_4
                 + 8.751 gamma_3_1_1 >= -8.75
 _2_4_4_1_4#203: - 7.501 s_3_1 + g_0 - 4 g_1 - g_2 - g_3 + 0.5 g_4
                 + 7.501 gamma_3_1_1 >= -7.5
 _2_4_4_1_5#204: - 5.58433333333333 s_3_1 + 2 g_0 - g_1 + 0.25 g_2 - 2 g_3
                 - 0.333333333333333 g_4 + 5.58433333333333 gamma_3_1_1
                 >= -5.58333333333333
 _2_4_5_0_1#205: - 10.476 s_3_0 - g_0 + 6 g_1 + 1.1 g_2 + g_3 - 1.375 g_4
                 + 10.476 gamma_3_0_0 >= -10.475
 _2_4_5_0_2#206: - 8.55933333333333 s_3_0 - g_0 + 5 g_1 + 0.85 g_2 + g_3
                 - 0.708333333333333 g_4 + 8.55933333333333 gamma_3_0_0
                 >= -8.55833333333333
 _2_4_5_0_3#207: - 13.726 s_3_0 - g_0 + 7 g_1 + 1.35 g_2 + g_3 - 3.375 g_4
                 + 13.726 gamma_3_0_0 >= -13.725
 _2_4_5_0_4#208: - 6.526 s_3_0 - 2 g_0 + 2 g_1 - 0.4 g_2 + 2 g_3 + 0.125 g_4
                 + 6.526 gamma_3_0_0 >= -6.525
 _2_4_5_0_5#209: - 12.976 s_3_0 - 3 g_0 + 6 g_1 + 0.6 g_2 + 3 g_3 - 0.375 g_4
                 + 12.976 gamma_3_0_0 >= -12.975
 _2_4_5_0_6#210: - 8.55933333333333 s_3_0 - g_0 + 5 g_1 + 0.85 g_2 + g_3
                 - 0.708333333333333 g_4 + 8.55933333333333 gamma_3_0_0
                 >= -8.55833333333333
 _2_4_5_1_1#211: - 9.001 s_3_0 + g_0 + 4 g_1 + 1.5 g_2 - g_3 - 1.5 g_4
                 + 9.001 gamma_3_0_1 >= -9
 _2_4_5_1_2#212: - 7.08433333333333 s_3_0 + g_0 + 3 g_1 + 1.25 g_2 - g_3
                 - 0.833333333333333 g_4 + 7.08433333333333 gamma_3_0_1
                 >= -7.08333333333333
 _2_4_5_1_3#213: - 12.251 s_3_0 + g_0 + 5 g_1 + 1.75 g_2 - g_3 - 3.5 g_4
                 + 12.251 gamma_3_0_1 >= -12.25
 _2_4_5_1_4#214: - 7.501 s_3_0 - g_0 + 4 g_1 + g_2 + g_3 - 0.5 g_4
                 + 7.501 gamma_3_0_1 >= -7.5
 _2_4_5_1_5#215: - 7.08433333333333 s_3_0 + g_0 + 3 g_1 + 1.25 g_2 - g_3
                 - 0.833333333333333 g_4 + 7.08433333333333 gamma_3_0_1
                 >= -7.08333333333333
 c217#216:       - g_0 + a_0 >= 0
 c218#217:       g_0 + a_0 >= 0
 c219#218:       - g_1 + a_1 >= 0
 c220#219:       g_1 + a_1 >= 0
 c221#220:       - g_2 + a_2 >= 0
 c222#221:       g_2 + a_2 >= 0
 c223#222:       - g_3 + a_3 >= 0
 c224#223:       g_3 + a_3 >= 0
 c225#224:       - g_4 + a_4 >= 0
 c226#225:       g_4 + a_4 >= 0
Bounds
 0 <= s_2_5 <= 1
 0 <= s_2_4 <= 1
 0 <= s_2_3 <= 1
 0 <= s_2_2 <= 1
 0 <= s_2_1 <= 1
 0 <= s_2_0 <= 1
 0 <= s_4_5 <= 1
 0 <= s_4_4 <= 1
 0 <= s_4_3 <= 1
 0 <= s_4_2 <= 1
 0 <= s_4_1 <= 1
 0 <= s_4_0 <= 1
 0 <= s_1_1 <= 1
 0 <= s_1_0 <= 1
 0 <= s_0_1 <= 1
 0 <= s_0_0 <= 1
 0 <= s_3_5 <= 1
 0 <= s_3_4 <= 1
 0 <= s_3_3 <= 1
 0 <= s_3_2 <= 1
 0 <= s_3_1 <= 1
 0 <= s_3_0 <= 1
-1 <= g_0 <= 1
-1 <= g_1 <= 1
-1 <= g_2 <= 1
-1 <= g_3 <= 1
-1 <= g_4 <= 1
 0 <= gamma_2_5_0 <= 1
 0 <= gamma_2_5_1 <= 1
 0 <= gamma_2_4_0 <= 1
 0 <= gamma_2_4_1 <= 1
 0 <= gamma_2_3_0 <= 1
 0 <= gamma_2_3_1 <= 1
 0 <= gamma_2_2_0 <= 1
 0 <= gamma_2_2_1 <= 1
 0 <= gamma_2_1_0 <= 1
 0 <= gamma_2_1_1 <= 1
 0 <= gamma_2_0_0 <= 1
 0 <= gamma_2_0_1 <= 1
 0 <= gamma_4_5_0 <= 1
 0 <= gamma_4_5_1 <= 1
 0 <= gamma_4_5_2 <= 1
 0 <= gamma_4_4_0 <= 1
 0 <= gamma_4_4_1 <= 1
 0 <= gamma_4_4_2 <= 1
 0 <= gamma_4_3_0 <= 1
 0 <= gamma_4_3_1 <= 1
 0 <= gamma_4_3_2 <= 1
 0 <= gamma_4_2_0 <= 1
 0 <= gamma_4_2_1 <= 1
 0 <= gamma_4_2_2 <= 1
 0 <= gamma_4_1_0 <= 1
 0 <= gamma_4_1_1 <= 1
 0 <= gamma_4_1_2 <= 1
 0 <= gamma_4_0_0 <= 1
 0 <= gamma_4_0_1 <= 1
 0 <= gamma_4_0_2 <= 1
 0 <= gamma_1_1_0 <= 1
 0 <= gamma_1_1_1 <= 1
 0 <= gamma_1_0_0 <= 1
 0 <= gamma_1_0_1 <= 1
 0 <= gamma_0_1_0 <= 1
 0 <= gamma_0_1_1 <= 1
 0 <= gamma_0_0_0 <= 1
 0 <= gamma_3_5_0 <= 1
 0 <= gamma_3_5_1 <= 1
 0 <= gamma_3_5_2 <= 1
 0 <= gamma_3_4_0 <= 1
 0 <= gamma_3_4_1 <= 1
 0 <= gamma_3_3_0 <= 1
 0 <= gamma_3_3_1 <= 1
 0 <= gamma_3_3_2 <= 1
 0 <= gamma_3_2_0 <= 1
 0 <= gamma_3_2_1 <= 1
 0 <= gamma_3_1_0 <= 1
 0 <= gamma_3_1_1 <= 1
 0 <= gamma_3_0_0 <= 1
 0 <= gamma_3_0_1 <= 1
 0 <= gamma_2_5_2 <= 1
 0 <= gamma_2_4_2 <= 1
 0 <= gamma_2_3_2 <= 1
 0 <= gamma_2_2_2 <= 1
 0 <= gamma_2_1_2 <= 1
 0 <= gamma_2_0_2 <= 1
 0 <= gamma_0_0_1 <= 1
 0 <= gamma_3_4_2 <= 1
 0 <= gamma_3_2_2 <= 1
 0 <= gamma_3_1_2 <= 1
 0 <= gamma_3_0_2 <= 1
 0 <= a_0 <= 1
 0 <= a_1 <= 1
 0 <= a_2 <= 1
 0 <= a_3 <= 1
 0 <= a_4 <= 1
Generals
 s_2_5  s_2_4  s_2_3  s_2_2  s_2_1  s_2_0  s_4_5  s_4_4  s_4_3  s_4_2  s_4_1 
 s_4_0  s_1_1  s_1_0  s_0_1  s_0_0  s_3_5  s_3_4  s_3_3  s_3_2  s_3_1  s_3_0 
 gamma_2_5_0  gamma_2_5_1  gamma_2_4_0  gamma_2_4_1  gamma_2_3_0  gamma_2_3_1 
 gamma_2_2_0  gamma_2_2_1  gamma_2_1_0  gamma_2_1_1  gamma_2_0_0  gamma_2_0_1 
 gamma_4_5_0  gamma_4_5_1  gamma_4_5_2  gamma_4_4_0  gamma_4_4_1  gamma_4_4_2 
 gamma_4_3_0  gamma_4_3_1  gamma_4_3_2  gamma_4_2_0  gamma_4_2_1  gamma_4_2_2 
 gamma_4_1_0  gamma_4_1_1  gamma_4_1_2  gamma_4_0_0  gamma_4_0_1  gamma_4_0_2 
 gamma_1_1_0  gamma_1_1_1  gamma_1_0_0  gamma_1_0_1  gamma_0_1_0  gamma_0_1_1 
 gamma_0_0_0  gamma_3_5_0  gamma_3_5_1  gamma_3_5_2  gamma_3_4_0  gamma_3_4_1 
 gamma_3_3_0  gamma_3_3_1  gamma_3_3_2  gamma_3_2_0  gamma_3_2_1  gamma_3_1_0 
 gamma_3_1_1  gamma_3_0_0  gamma_3_0_1  gamma_2_5_2  gamma_2_4_2  gamma_2_3_2 
 gamma_2_2_2  gamma_2_1_2  gamma_2_0_2  gamma_0_0_1  gamma_3_4_2  gamma_3_2_2 
 gamma_3_1_2  gamma_3_0_2  a_0  a_1  a_2  a_3  a_4 
End
